\ This file has been generated by DOcplex
\ ENCODING=ISO-8859-1
\Problem name: random_problem.lp

Minimize
 obj: 686 x0 + 343 x1 + 138 x2 + 69 x3 + 870 x4 + 435 x5 - 110 x6 - 55 x7
      + 56 x8 + 28 x9 - 156 x10 - 78 x11 - 468 x12 - 234 x13 - 254 x14 - 127 x15
      + [ 1352 x0^2 + 1352 x0*x1 + 832 x0*x2 + 416 x0*x3 + 976 x0*x4 + 488 x0*x5
      + 1136 x0*x6 + 568 x0*x7 + 816 x0*x8 + 408 x0*x9 + 864 x0*x10 + 432 x0*x11
      + 272 x0*x12 + 136 x0*x13 + 464 x0*x14 + 232 x0*x15 + 338 x1^2 + 416 x1*x2
      + 208 x1*x3 + 488 x1*x4 + 244 x1*x5 + 568 x1*x6 + 284 x1*x7 + 408 x1*x8
      + 204 x1*x9 + 432 x1*x10 + 216 x1*x11 + 136 x1*x12 + 68 x1*x13
      + 232 x1*x14 + 116 x1*x15 + 1128 x2^2 + 1128 x2*x3 + 272 x2*x4 + 136 x2*x5
      + 320 x2*x6 + 160 x2*x7 - 176 x2*x8 - 88 x2*x9 + 400 x2*x10 + 200 x2*x11
      + 816 x2*x12 + 408 x2*x13 + 224 x2*x14 + 112 x2*x15 + 282 x3^2 + 136 x3*x4
      + 68 x3*x5 + 160 x3*x6 + 80 x3*x7 - 88 x3*x8 - 44 x3*x9 + 200 x3*x10
      + 100 x3*x11 + 408 x3*x12 + 204 x3*x13 + 112 x3*x14 + 56 x3*x15
      + 1032 x4^2 + 1032 x4*x5 + 1168 x4*x6 + 584 x4*x7 + 320 x4*x8 + 160 x4*x9
      + 864 x4*x10 + 432 x4*x11 + 48 x4*x12 + 24 x4*x13 + 336 x4*x14
      + 168 x4*x15 + 258 x5^2 + 584 x5*x6 + 292 x5*x7 + 160 x5*x8 + 80 x5*x9
      + 432 x5*x10 + 216 x5*x11 + 24 x5*x12 + 12 x5*x13 + 168 x5*x14 + 84 x5*x15
      + 1224 x6^2 + 1224 x6*x7 + 1088 x6*x8 + 544 x6*x9 + 992 x6*x10
      + 496 x6*x11 + 912 x6*x12 + 456 x6*x13 + 608 x6*x14 + 304 x6*x15
      + 306 x7^2 + 544 x7*x8 + 272 x7*x9 + 496 x7*x10 + 248 x7*x11 + 456 x7*x12
      + 228 x7*x13 + 304 x7*x14 + 152 x7*x15 + 536 x8^2 + 536 x8*x9 + 240 x8*x10
      + 120 x8*x11 + 272 x8*x12 + 136 x8*x13 + 256 x8*x14 + 128 x8*x15
      + 134 x9^2 + 120 x9*x10 + 60 x9*x11 + 136 x9*x12 + 68 x9*x13 + 128 x9*x14
      + 64 x9*x15 + 504 x10^2 + 504 x10*x11 + 272 x10*x12 + 136 x10*x13
      + 336 x10*x14 + 168 x10*x15 + 126 x11^2 + 136 x11*x12 + 68 x11*x13
      + 168 x11*x14 + 84 x11*x15 + 504 x12^2 + 504 x12*x13 + 192 x12*x14
      + 96 x12*x15 + 126 x13^2 + 96 x13*x14 + 48 x13*x15 + 176 x14^2
      + 176 x14*x15 + 44 x15^2 ]/2
Subject To
 c0: 2 x0 + x1 + 2 x2 + x3 + 2 x4 + x5 + 2 x6 + x7 + 2 x8 + x9 + 2 x10 + x11
     + 2 x12 + x13 + 2 x14 + x15 = 3

Bounds
 0 <= x0 <= 1
 0 <= x1 <= 1
 0 <= x2 <= 1
 0 <= x3 <= 1
 0 <= x4 <= 1
 0 <= x5 <= 1
 0 <= x6 <= 1
 0 <= x7 <= 1
 0 <= x8 <= 1
 0 <= x9 <= 1
 0 <= x10 <= 1
 0 <= x11 <= 1
 0 <= x12 <= 1
 0 <= x13 <= 1
 0 <= x14 <= 1
 0 <= x15 <= 1

Binaries
 x0 x1 x2 x3 x4 x5 x6 x7 x8 x9 x10 x11 x12 x13 x14 x15
End
